c CNF-Signature AND_9
c 
c $p 9 1
c $m (1,2,3,4,5,6,7,8,9,10)
c $i 1
c $i 2
c $i 3
c $i 4
c $i 5
c $i 6
c $i 7
c $i 8
c $i 9
c $o 10
p cnf 10 10
1 -10 0
2 -10 0
3 -10 0
4 -10 0
5 -10 0
6 -10 0
7 -10 0
8 -10 0
9 -10 0
-1 -2 -3 -4 -5 -6 -7 -8 -9 10 0
